20
80.0
0 19 3.61 0.73
1 18 3.72 0.84
2 17 3.3 0.41
3 16 2.75 0.26
4 15 2.4 0.16
5 14 3.22 0.09
6 13 3.14 0.07
7 12 3.2 0.38
8 11 3.05 0.06
9 10 2.68 0.04
10 9 2.74 0.06
11 8 2.44 0.02
12 7 3.56 0.02
13 6 2.49 0.19
14 5 2.93 0.02
15 4 2.77 0.04
16 3 3.99 0.06
17 2 5.15 0.07
18 1 3.59 0.03
